(set-info :smt-lib-version 2.6)
(set-logic QF_BV)
(set-info :source |
 Patrice Godefroid, SAGE (systematic dynamic test generation)
 For more information: http://research.microsoft.com/en-us/um/people/pg/public_psfiles/ndss2008.pdf
|)
(set-info :category "industrial")
(set-info :status sat)
(declare-fun T2_60 () (_ BitVec 16))
(declare-fun T2_58 () (_ BitVec 16))
(declare-fun T2_62 () (_ BitVec 16))
(declare-fun T2_56 () (_ BitVec 16))
(declare-fun T2_54 () (_ BitVec 16))
(declare-fun T1_62 () (_ BitVec 8))
(declare-fun T1_63 () (_ BitVec 8))
(declare-fun T1_60 () (_ BitVec 8))
(declare-fun T1_61 () (_ BitVec 8))
(declare-fun T1_58 () (_ BitVec 8))
(declare-fun T1_59 () (_ BitVec 8))
(declare-fun T1_56 () (_ BitVec 8))
(declare-fun T1_57 () (_ BitVec 8))
(declare-fun T1_54 () (_ BitVec 8))
(declare-fun T1_55 () (_ BitVec 8))
(assert (let ((?v_3 ((_ zero_extend 16) T2_60))) (let ((?v_13 (bvadd ?v_3 (_ bv2 32)))) (let ((?v_15 (bvsub (_ bv56 32) ?v_13))) (let ((?v_14 ((_ extract 7 0) ?v_15)) (?v_5 ((_ zero_extend 16) T2_58)) (?v_9 ((_ zero_extend 16) T2_62)) (?v_2 ((_ zero_extend 16) T2_56)) (?v_1 ((_ zero_extend 16) T2_54))) (let ((?v_6 (bvadd ?v_1 (_ bv34 32)))) (let ((?v_10 (bvadd ?v_6 ?v_2))) (let ((?v_11 (bvadd ?v_10 ?v_5))) (let ((?v_12 (bvadd ?v_11 ?v_3)) (?v_0 (bvadd ?v_1 (_ bv1503176 32)))) (let ((?v_4 (bvadd ?v_0 ?v_2))) (let ((?v_8 (bvadd ?v_4 ?v_5))) (let ((?v_7 (bvadd ?v_8 ?v_3))) (and true (= T2_54 (bvor (bvshl ((_ zero_extend 8) T1_55) (_ bv8 16)) ((_ zero_extend 8) T1_54))) (= T2_56 (bvor (bvshl ((_ zero_extend 8) T1_57) (_ bv8 16)) ((_ zero_extend 8) T1_56))) (= T2_58 (bvor (bvshl ((_ zero_extend 8) T1_59) (_ bv8 16)) ((_ zero_extend 8) T1_58))) (= T2_60 (bvor (bvshl ((_ zero_extend 8) T1_61) (_ bv8 16)) ((_ zero_extend 8) T1_60))) (= T2_62 (bvor (bvshl ((_ zero_extend 8) T1_63) (_ bv8 16)) ((_ zero_extend 8) T1_62))) (= ?v_14 (_ bv4 8)) (bvult ?v_0 (_ bv3131408 32)) (bvule ?v_0 (_ bv3131408 32)) (bvule (bvadd ?v_2 ?v_0) (_ bv3131408 32)) (bvult ?v_1 (_ bv256 32)) (bvule ?v_1 ?v_6) (not (= T2_54 (_ bv0 16))) (bvule (bvadd ?v_9 ?v_7) (_ bv3131408 32)) (bvult ?v_4 (_ bv3131408 32)) (bvule (bvadd ?v_5 ?v_4) (_ bv3131408 32)) (bvult ?v_2 (_ bv256 32)) (bvule ?v_2 ?v_10) (not (= T2_56 (_ bv0 16))) (bvule T2_54 T2_56) (bvult ?v_7 (_ bv3131408 32)) (bvult ?v_8 (_ bv3131408 32)) (bvule (bvadd ?v_3 ?v_8) (_ bv3131408 32)) (bvult ?v_9 (_ bv256 32)) (bvule ?v_9 (bvadd ?v_12 ?v_9)) (not (= T2_62 (_ bv0 16))) (bvult ?v_5 (_ bv256 32)) (bvule ?v_5 ?v_11) (not (= T2_58 (_ bv0 16))) (bvule ?v_2 ?v_5) (bvult ?v_3 (_ bv256 32)) (bvule ?v_3 ?v_12) (not (= T2_60 (_ bv0 16))) (bvult ?v_9 ?v_3) (bvule ?v_5 ?v_3) (bvule (_ bv4 32) ?v_13) (bvult ?v_13 (_ bv256 32)) (bvult ?v_13 (_ bv2147483648 32)) (bvule ?v_13 (_ bv2147483647 32)) (not (= ?v_13 (_ bv0 32))) (bvule ?v_13 (_ bv4294967264 32)) (= (bvand ?v_14 (_ bv128 8)) (_ bv0 8)) (not (= (bvand ?v_14 (_ bv63 8)) (_ bv0 8))) (bvult ?v_15 (_ bv63 32)) (not (= ?v_14 (_ bv5 8))))))))))))))))
(check-sat)
(exit)
